4 2 3 10 7 -1 -1 1 0 -1 
8 4 7 3 2 10 10 -1 8 -1 
6 3 0 7 6 -1 4 5 2 -1 
2 4 6 9 6 1 6 4 4 -1 
1 8 8 7 2 4 10 2 -1 -1 
0 1 5 6 0 9 0 7 5 -1 
4 1 6 5 4 1 6 10 6 -1 
2 2 6 5 2 -1 -1 3 7 -1 
2 -1 10 8 -1 8 7 1 9 -1 
10 -1 8 -1 3 6 10 5 0 -1 
1 3 7 4 1 7 2 9 3 -1 
-1 3 2 10 6 1 9 1 4 -1 
2 1 5 -1 7 2 4 1 1 -1 
9 -1 5 5 3 0 2 4 1 -1 
7 8 9 5 -1 2 8 0 7 -1 
